This is Ipopt version 3.14.16, running with linear solver MUMPS 5.7.3.

Number of nonzeros in equality constraint Jacobian...:        0
Number of nonzeros in inequality constraint Jacobian.:     1071
Number of nonzeros in Lagrangian Hessian.............:        0

Total number of variables............................:       21
                     variables with only lower bounds:        0
                variables with lower and upper bounds:       21
                     variables with only upper bounds:        0
Total number of equality constraints.................:        0
Total number of inequality constraints...............:       51
        inequality constraints with only lower bounds:        0
   inequality constraints with lower and upper bounds:        0
        inequality constraints with only upper bounds:       51

iter    objective    inf_pr   inf_du lg(mu)  ||d||  lg(rg) alpha_du alpha_pr  ls
   0  4.6537831e+00 0.00e+00 5.78e+00   0.0 0.00e+00    -  0.00e+00 0.00e+00   0
   1  4.2571324e-01 0.00e+00 4.02e+00  -1.2 1.99e+01    -  1.93e-01 6.17e-01f  1
   2  4.2438180e-01 0.00e+00 2.49e-01  -6.0 1.23e+01    -  8.52e-01 1.00e+00h  1
   3  2.3450989e-01 0.00e+00 5.02e+01  -1.0 4.18e+00    -  6.25e-02 1.00e+00f  1
   4  2.3349427e-01 0.00e+00 1.08e-01  -6.8 6.12e-01    -  9.79e-01 1.00e+00h  1
   5  1.6485860e-01 0.00e+00 1.51e-02  -2.9 1.72e+00    -  8.10e-01 1.00e+00f  1
   6  1.4143526e-01 1.69e-01 4.53e-03  -2.9 7.00e-01    -  1.00e+00 9.89e-01h  1
   7  1.4498094e-01 1.04e-02 5.15e-03  -4.4 1.48e-01    -  8.67e-01 1.00e+00h  1
   8  1.4266387e-01 2.39e-02 3.88e-04  -4.4 4.44e-01    -  1.00e+00 1.00e+00h  1
   9  1.4236880e-01 1.44e-02 4.55e-04  -5.1 4.66e-01    -  9.93e-01 1.00e+00h  1
iter    objective    inf_pr   inf_du lg(mu)  ||d||  lg(rg) alpha_du alpha_pr  ls
  10  1.4316213e-01 0.00e+00 4.36e-04  -5.1 2.33e-01    -  9.90e-01 1.00e+00h  1

Number of Iterations....: 10

                                   (scaled)                 (unscaled)
Objective...............:   1.4316213085734264e-01    1.4316213085734264e-01
Dual infeasibility......:   4.3644253652002062e-04    4.3644253652002062e-04
Constraint violation....:   0.0000000000000000e+00    0.0000000000000000e+00
Variable bound violation:   0.0000000000000000e+00    0.0000000000000000e+00
Complementarity.........:   1.1390590677002567e-05    1.1390590677002567e-05
Overall NLP error.......:   4.3644253652002062e-04    4.3644253652002062e-04


Number of objective function evaluations             = 11
Number of objective gradient evaluations             = 11
Number of equality constraint evaluations            = 0
Number of inequality constraint evaluations          = 11
Number of equality constraint Jacobian evaluations   = 0
Number of inequality constraint Jacobian evaluations = 11
Number of Lagrangian Hessian evaluations             = 0
Total seconds in IPOPT                               = 8.326

EXIT: Optimal Solution Found.
